\Problem name: mknap_4.lp

Maximize
  100 x1 + 220 x2 + 90 x3 + 400 x4 + 300 x5 + 400 x6 + 205 x7 + 120 x8 + 160 x9 + 580 x10 + 400 x11 + 140 x12 + 100 x13 + 1300 x14 + 650 x15 + 320 x16 + 480 x17 + 80 x18 + 60 x19 + 2550 x20

Subject To
8 x1 + 24 x2 + 13 x3 + 80 x4 + 70 x5 + 80 x6 + 45 x7 + 15 x8 + 28 x9 + 90 x10 + 130 x11 + 32 x12 + 20 x13 + 120 x14 + 40 x15 + 30 x16 + 20 x17 + 6 x18 + 3 x19 + 180 x20 <= 550
8 x1 + 44 x2 + 13 x3 + 100 x4 + 100 x5 + 90 x6 + 75 x7 + 25 x8 + 28 x9 + 120 x10 + 130 x11 + 32 x12 + 40 x13 + 160 x14 + 40 x15 + 60 x16 + 55 x17 + 10 x18 + 6 x19 + 240 x20 <= 700
3 x1 + 6 x2 + 4 x3 + 20 x4 + 20 x5 + 30 x6 + 8 x7 + 3 x8 + 12 x9 + 14 x10 + 40 x11 + 6 x12 + 3 x13 + 20 x14 + 5 x15 + 0 x16 + 5 x17 + 3 x18 + 0 x19 + 20 x20 <= 130
5 x1 + 9 x2 + 6 x3 + 40 x4 + 30 x5 + 40 x6 + 16 x7 + 5 x8 + 18 x9 + 24 x10 + 60 x11 + 16 x12 + 11 x13 + 30 x14 + 25 x15 + 10 x16 + 13 x17 + 5 x18 + 1 x19 + 80 x20 <= 240
5 x1 + 11 x2 + 7 x3 + 50 x4 + 40 x5 + 40 x6 + 19 x7 + 7 x8 + 18 x9 + 29 x10 + 70 x11 + 21 x12 + 17 x13 + 30 x14 + 25 x15 + 15 x16 + 25 x17 + 5 x18 + 1 x19 + 100 x20 <= 280
5 x1 + 11 x2 + 7 x3 + 55 x4 + 40 x5 + 40 x6 + 21 x7 + 9 x8 + 18 x9 + 29 x10 + 70 x11 + 21 x12 + 17 x13 + 35 x14 + 25 x15 + 20 x16 + 25 x17 + 5 x18 + 2 x19 + 110 x20 <= 310
0 x1 + 0 x2 + 1 x3 + 10 x4 + 4 x5 + 10 x6 + 0 x7 + 6 x8 + 0 x9 + 6 x10 + 32 x11 + 3 x12 + 0 x13 + 70 x14 + 10 x15 + 0 x16 + 0 x17 + 0 x18 + 0 x19 + 0 x20 <= 110
3 x1 + 4 x2 + 5 x3 + 20 x4 + 14 x5 + 20 x6 + 6 x7 + 12 x8 + 10 x9 + 18 x10 + 42 x11 + 9 x12 + 12 x13 + 100 x14 + 20 x15 + 5 x16 + 6 x17 + 4 x18 + 1 x19 + 20 x20 <= 205
3 x1 + 6 x2 + 9 x3 + 30 x4 + 29 x5 + 20 x6 + 12 x7 + 12 x8 + 10 x9 + 30 x10 + 42 x11 + 18 x12 + 18 x13 + 110 x14 + 20 x15 + 15 x16 + 18 x17 + 7 x18 + 2 x19 + 40 x20 <= 260
3 x1 + 8 x2 + 9 x3 + 35 x4 + 29 x5 + 20 x6 + 16 x7 + 15 x8 + 10 x9 + 30 x10 + 42 x11 + 20 x12 + 18 x13 + 120 x14 + 20 x15 + 20 x16 + 22 x17 + 7 x18 + 3 x19 + 50 x20 <= 275

Binaries
x1
x2
x3
x4
x5
x6
x7
x8
x9
x10
x11
x12
x13
x14
x15
x16
x17
x18
x19
x20
End